62	0

0	3	2	3	4
2	1	5
7	2	7	9
6	4	6	7	8	9
1	4	6	7	8	9
8	2	10	17
5	4	10	11	12	17
5	4	10	11	12	17
4	4	10	11	12	17
1	5	13	14	15	16	18
8	3	22	26	28
3	5	13	14	15	16	18
4	5	19	21	22	26	28
7	4	23	27	29	33
4	5	19	21	22	26	28
1	3	19	20	21
4	3	19	20	21
1	3	19	20	21
7	1	25
2	3	22	26	28
3	4	23	27	29	33
2	4	23	27	29	33
2	2	24	25
5	5	34	36	37	38	40
1	4	30	31	32	35
7	4	30	31	32	35
7	5	34	36	37	38	40
10	4	39	41	45	46
5	4	30	31	32	35
1	5	34	36	37	38	40
2	5	34	36	37	38	40
2	5	34	36	37	38	40
6	5	34	36	37	38	40
6	2	43	51
3	4	39	41	45	46
1	4	39	41	45	46
4	4	42	43	44	51
1	4	39	41	45	46
3	4	42	43	44	51
2	4	42	43	44	51
7	4	47	48	49	50
7	4	52	53	54	55
2	4	47	48	49	50
4	4	47	48	49	50
6	5	47	48	49	50	51
7	4	47	48	49	50
10	5	54	56	57	58	59
2	4	52	53	54	55
2	4	52	53	54	55
2	4	52	53	54	55
9	5	53	54	55	57	58
9	4	56	57	58	59
9	2	56	60
8	2	60	61
7	3	56	59	60
7	1	61
6	2	60	61
9	2	60	61
9	1	61
5	1	62
4	1	62
0	0
